100 8
311 482
627 733
636 362
693 552
758 884
591 251
755 248
286 431
563 164
920 937
374 804
332 323
417 507
656 492
391 504
795 343
559 836
692 773
475 553
144 272
403 817
885 918
528 623
396 229
630 849
636 479
208 517
641 425
309 222
473 798
533 173
874 946
952 948
579 533
374 124
952 830
656 638
538 793
387 535
415 433
667 233
419 498
719 507
396 599
526 271
616 223
703 221
943 889
682 658
293 387
489 759
487 382
482 491
225 117
509 496
567 793
314 621
382 446
582 349
458 442
671 578
281 229
488 732
404 262
302 240
684 477
153 272
432 430
731 114
604 935
596 227
425 494
380 551
425 642
743 135
666 357
663 854
890 879
409 581
399 234
388 838
578 413
666 348
626 844
606 481
573 243
513 684
603 208
624 108
446 116
164 670
227 283
295 474
313 109
602 182
794 215
757 147
478 86
268 334
229 264
